NAME : grid
TYPE : TSP
DIMENSION : 50
EDGE_WEIGHT_TYPE : EUC_2D
NODE_COORD_SECTION
1 351536 351360
2 859219 649399
3 392097 933877
4 713665 641901
5 807377 378778
6 859619 922885
7 424936 965854
8 431427 227398
9 782 421253
10 184629 749172
11 175938 411800
12 249665 717924
13 220561 492116
14 44562 305055
15 138787 886311
16 92005 958698
17 800375 123790
18 906806 336038
19 744273 772823
20 213531 299899
21 797260 976043
22 786403 643422
23 726955 954246
24 42059 22975
25 54953 508535
26 736042 115074
27 512988 576934
28 807496 895713
29 793276 869507
30 44858 770747
31 544156 682781
32 65982 12021
33 524801 717924
34 629503 819341
35 249665 914751
36 564 529289
37 108922 224592
38 141501 136414
39 583146 325720
40 881411 274005
41 407196 573489
42 560022 879932
43 888293 827654
44 520621 187837
45 58573 633416
46 767403 280854
47 727752 806206
48 386012 149531
49 524801 914751
50 898539 746928
EOF
